Problem:    
Rows:       248
Columns:    89 (72 integer, 72 binary)
Non-zeros:  820
Status:     INTEGER OPTIMAL
Objective:  value = 272.8022 (MINimum)

   No.   Row name        Activity     Lower bound   Upper bound
------ ------------    ------------- ------------- -------------
     1 r.5                   272.802             0               
     2 r.6                  -1795.81       -1935.2               
     3 r.7                    2272.8             0               
     4 r.8                  -1957.82      -1962.47               
     5 r.9                    2272.8             0               
     6 r.10                  -1865.6      -1925.02               
     7 r.11                  272.802             0               
     8 r.12                 -21.7499      -1959.82               
     9 r.13                  272.802             0               
    10 r.14                   7.3646      -1890.62               
    11 r.15                   2272.8             0               
    12 r.16                 -1849.08      -1937.18               
    13 r.17                  272.802             0               
    14 r.18                  -1670.1      -1942.91               
    15 r.19                   2272.8             0               
    16 r.20                  -1916.9      -1964.08               
    17 r.21                   2272.8             0               
    18 r.22                 -1940.59      -1947.95               
    19 r.23                  272.802             0               
    20 r.24                  4.64565       -1968.6               
    21 r.25                   2272.8             0               
    22 r.26                  -1727.2      -1864.09               
    23 r.27                  272.802             0               
    24 r.28                   47.177      -1933.38               
    25 r.29                  272.802             0               
    26 r.30                  136.896      -1865.31               
    27 r.31                   2272.8             0               
    28 r.32                  -1727.2      -1933.75               
    29 r.33                   2272.8             0               
    30 r.34                 -1997.64      -1997.64               
    31 r.35                  272.802             0               
    32 r.36                 -1967.66      -1967.66               
    33 r.37                        1             1             = 
    34 r.38                        1             1             = 
    35 r.39                        1             1             = 
    36 r.40                        1             1             = 
    37 r.41                        1             1             = 
    38 r.42                        1             1             = 
    39 r.43                        1             1             = 
    40 r.44                        1             1             = 
    41 r.45                   1932.7       74.9844               
    42 r.46                  -1935.2       -1935.2               
    43 r.47                  1931.07       40.1808               
    44 r.48                 -1926.07      -1962.47               
    45 r.49                  1805.67       109.382               
    46 r.50                 -1805.67       -1935.2               
    47 r.51                   103.74       62.8198               
    48 r.52                  -103.74      -1962.47               
    49 r.53                  128.203       57.0933               
    50 r.54                 -128.203       -1935.2               
    51 r.55                  35.9203       35.9203               
    52 r.56                 -35.9203      -1962.47               
    53 r.57                  1857.72       52.0474               
    54 r.58                 -1857.72       -1935.2               
    55 r.59                  1957.47       31.3956               
    56 r.60                 -1957.47      -1962.47               
    57 r.61                    71.11      -1836.28               
    58 r.62                  1845.48      -1877.74               
    59 r.63                 -1774.37      -1836.28               
    60 r.64                        0      -1877.74               
    61 r.65                   1935.2       134.689               
    62 r.66                  -1935.2       -1935.2               
    63 r.67                  225.625       66.2506               
    64 r.68                 -225.625      -1962.47               
    65 r.69                 -1800.67       -1932.7               
    66 r.70                 -1955.19      -1957.47               
    67 r.71                  169.349       -1932.7               
    68 r.72                  14.8335      -1957.47               
    69 r.73                  67.2958       64.7958               
    70 r.74                 -64.7958      -1925.02               
    71 r.75                   68.927       37.5314               
    72 r.76                  -73.927      -1959.82               
    73 r.77                  1870.47       109.382               
    74 r.78                 -1870.47      -1925.02               
    75 r.79                  177.667       62.8198               
    76 r.80                 -177.667      -1959.82               
    77 r.81                  192.999       57.0933               
    78 r.82                 -192.999      -1925.02               
    79 r.83                  109.847       35.9203               
    80 r.84                 -109.847      -1959.82               
    81 r.85                  1922.52       52.0474               
    82 r.86                 -1922.52      -1925.02               
    83 r.87                  31.3956       31.3956               
    84 r.88                 -31.3956      -1959.82               
    85 r.89                  135.906       135.906               
    86 r.90                 -135.906      -1925.02               
    87 r.91                   73.927       66.6216               
    88 r.92                  -73.927      -1959.82               
    89 r.93                        0      -1837.49               
    90 r.94                 -1864.09      -1878.11               
    91 r.95                  163.646      -1837.49               
    92 r.96                 -1700.45      -1878.11               
    93 r.97                 -1865.47      -1922.52               
    94 r.98                 -29.1145      -1954.82               
    95 r.99                  104.553      -1922.52               
    96 r.100                 1940.91      -1954.82               
    97 r.101                 196.828       64.7958               
    98 r.102                -194.328      -1890.62               
    99 r.103                 1891.26       37.5314               
   100 r.104                -1896.26      -1937.18               
   101 r.105                 127.032       74.9844               
   102 r.106                -129.532      -1890.62               
   103 r.107                 1827.33       40.1808               
   104 r.108                -1822.33      -1937.18               
   105 r.109                 1677.47      -1888.12               
   106 r.110                -178.978      -1932.18               
   107 r.111                -75.7327      -1888.12               
   108 r.112                -1932.18      -1932.18               
   109 r.113                 52.0474       52.0474               
   110 r.114                -52.0474      -1890.62               
   111 r.115                 1853.73       31.3956               
   112 r.116                -1853.73      -1937.18               
   113 r.117                 265.438       135.906               
   114 r.118                -265.438      -1890.62               
   115 r.119                 1896.26       66.6216               
   116 r.120                -1896.26      -1937.18               
   117 r.121                 129.532      -1837.49               
   118 r.122                -1734.56      -1878.11               
   119 r.123                -14.0207      -1837.49               
   120 r.124                -1878.11      -1878.11               
   121 r.125                       5      -1888.12               
   122 r.126                -1851.45      -1932.18               
   123 r.127                 1975.02      -1888.12               
   124 r.128                 118.573      -1932.18               
   125 r.129                  1874.3       64.7958               
   126 r.130                 -1871.8      -1942.91               
   127 r.131                 1959.08       37.5314               
   128 r.132                -1964.08      -1964.08               
   129 r.133                  1804.5       74.9844               
   130 r.134                   -1807      -1942.91               
   131 r.135                 1895.15       40.1808               
   132 r.136                -1890.15      -1964.08               
   133 r.137                 1677.47      -1888.12               
   134 r.138                -178.978      -1932.18               
   135 r.139                -75.7327      -1888.12               
   136 r.140                -1932.18      -1932.18               
   137 r.141                 1729.52       52.0474               
   138 r.142                -1729.52      -1942.91               
   139 r.143                 1921.55       31.3956               
   140 r.144                -1921.55      -1964.08               
   141 r.145                 1942.91       135.906               
   142 r.146                -1942.91      -1942.91               
   143 r.147                 1964.08       66.6216               
   144 r.148                -1964.08      -1964.08               
   145 r.149                    1807      -1837.49               
   146 r.150                -57.0933      -1878.11               
   147 r.151                 53.7991      -1837.49               
   148 r.152                 -1810.3      -1878.11               
   149 r.153                -1672.47      -1929.28               
   150 r.154                -1919.27      -1936.83               
   151 r.155                 297.552      -1929.28               
   152 r.156                 50.7537      -1936.83               
   153 r.157                  144.78       64.7958               
   154 r.158                 -142.28      -1947.95               
   155 r.159                 37.5314       37.5314               
   156 r.160                -42.5314       -1968.6               
   157 r.161                 74.9844       74.9844               
   158 r.162                -77.4844      -1947.95               
   159 r.163                  1973.6       40.1808               
   160 r.164                 -1968.6       -1968.6               
   161 r.165                 1947.95       109.382               
   162 r.166                -1947.95      -1947.95               
   163 r.167                 146.271       62.8198               
   164 r.168                -146.271       -1968.6               
   165 r.169                 270.484       57.0933               
   166 r.170                -270.484      -1947.95               
   167 r.171                 78.4517       35.9203               
   168 r.172                -78.4517       -1968.6               
   169 r.173                -1786.61      -1836.28               
   170 r.174                -12.2349      -1877.74               
   171 r.175                -1731.84      -1836.28               
   172 r.176                 42.5314      -1877.74               
   173 r.177                 77.4844      -1837.49               
   174 r.178                -1786.61      -1878.11               
   175 r.179                 132.251      -1837.49               
   176 r.180                -1731.84      -1878.11               
   177 r.181                -1942.95      -1942.95               
   178 r.182                 2.28105       -1958.6               
   179 r.183                 27.0684      -1942.95               
   180 r.184                  1972.3       -1958.6               
   181 r.185                   71.11      -1836.28               
   182 r.186                 1845.48      -1877.74               
   183 r.187                -1774.37      -1836.28               
   184 r.188                       0      -1877.74               
   185 r.189                 1861.59       74.9844               
   186 r.190                -1864.09      -1864.09               
   187 r.191                 1931.07       40.1808               
   188 r.192                -1926.07      -1933.38               
   189 r.193                 1734.56       109.382               
   190 r.194                -1734.56      -1864.09               
   191 r.195                  103.74       62.8198               
   192 r.196                 -103.74      -1933.38               
   193 r.197                 57.0933       57.0933               
   194 r.198                -57.0933      -1864.09               
   195 r.199                 35.9203       35.9203               
   196 r.200                -35.9203      -1933.38               
   197 r.201                -1786.61      -1836.28               
   198 r.202                -12.2349      -1877.74               
   199 r.203                -1731.84      -1836.28               
   200 r.204                 42.5314      -1877.74               
   201 r.205                 1864.09       134.689               
   202 r.206                -1864.09      -1864.09               
   203 r.207                 225.625       66.2506               
   204 r.208                -225.625      -1933.38               
   205 r.209                 67.2958       64.7958               
   206 r.210                -64.7958      -1865.31               
   207 r.211                 1769.37       37.5314               
   208 r.212                -1774.37      -1933.75               
   209 r.213                       0      -1837.49               
   210 r.214                -1864.09      -1878.11               
   211 r.215                 163.646      -1837.49               
   212 r.216                -1700.45      -1878.11               
   213 r.217                 129.532      -1837.49               
   214 r.218                -1734.56      -1878.11               
   215 r.219                -14.0207      -1837.49               
   216 r.220                -1878.11      -1878.11               
   217 r.221                    1807      -1837.49               
   218 r.222                -57.0933      -1878.11               
   219 r.223                 53.7991      -1837.49               
   220 r.224                 -1810.3      -1878.11               
   221 r.225                 77.4844      -1837.49               
   222 r.226                -1786.61      -1878.11               
   223 r.227                 132.251      -1837.49               
   224 r.228                -1731.84      -1878.11               
   225 r.229                 135.906       135.906               
   226 r.230                -135.906      -1865.31               
   227 r.231                 1774.37       66.6216               
   228 r.232                -1774.37      -1933.75               
   229 r.233                -1800.67       -1932.7               
   230 r.234                -1955.19      -1957.47               
   231 r.235                 169.349       -1932.7               
   232 r.236                 14.8335      -1957.47               
   233 r.237                -1865.47      -1922.52               
   234 r.238                -29.1145      -1954.82               
   235 r.239                 104.553      -1922.52               
   236 r.240                 1940.91      -1954.82               
   237 r.241                       5      -1888.12               
   238 r.242                -1851.45      -1932.18               
   239 r.243                 1975.02      -1888.12               
   240 r.244                 118.573      -1932.18               
   241 r.245                -1672.47      -1929.28               
   242 r.246                -1919.27      -1936.83               
   243 r.247                 297.552      -1929.28               
   244 r.248                 50.7537      -1936.83               
   245 r.249                -1942.95      -1942.95               
   246 r.250                 2.28105       -1958.6               
   247 r.251                 27.0684      -1942.95               
   248 r.252                  1972.3       -1958.6               

   No. Column name       Activity     Lower bound   Upper bound
------ ------------    ------------- ------------- -------------
     1 tt                    272.802             0               
     2 s_1_1        *              0             0             1 
     3 t_1_1                 2071.11             0               
     4 s_1_6        *              1             0             1 
     5 s_2_1        *              1             0             1 
     6 t_2_1                 225.625             0               
     7 s_2_6        *              0             0             1 
     8 s_1_2        *              1             0             1 
     9 t_1_2                 135.906             0               
    10 s_1_7        *              0             0             1 
    11 s_2_2        *              0             0             1 
    12 t_2_2                 299.552             0               
    13 s_2_7        *              1             0             1 
    14 s_1_3        *              0             0             1 
    15 t_1_3                 265.438             0               
    16 s_2_3        *              1             0             1 
    17 t_2_3                 121.885             0               
    18 s_1_4        *              0             0             1 
    19 t_1_4                 1942.91             0               
    20 s_2_4        *              1             0             1 
    21 t_2_4                 189.705             0               
    22 s_1_5        *              1             0             1 
    23 t_1_5                  213.39             0               
    24 s_2_5        *              0             0             1 
    25 t_2_5                 268.157             0               
    26 t_1_6                       0             0               
    27 t_2_6                 225.625             0               
    28 t_1_7                 135.906             0               
    29 t_2_7                       0             0               
    30 s_1_8        *              1             0             1 
    31 t_1_8                 270.438             0               
    32 s_2_8        *              0             0             1 
    33 t_2_8                 2240.46             0               
    34 u_1_1_2      *              0             0             1 
    35 u_2_1_2      *              1             0             1 
    36 u_1_1_3      *              0             0             1 
    37 u_2_1_3      *              0             0             1 
    38 u_1_1_4      *              0             0             1 
    39 u_2_1_4      *              0             0             1 
    40 u_1_1_5      *              0             0             1 
    41 u_2_1_5      *              1             0             1 
    42 u_1_1_7      *              0             0             1 
    43 u_2_1_7      *              0             0             1 
    44 u_1_2_1      *              1             0             1 
    45 u_2_2_1      *              0             0             1 
    46 u_1_2_3      *              1             0             1 
    47 u_2_2_3      *              0             0             1 
    48 u_1_2_4      *              1             0             1 
    49 u_2_2_4      *              0             0             1 
    50 u_1_2_5      *              1             0             1 
    51 u_2_2_5      *              0             0             1 
    52 u_1_2_6      *              0             0             1 
    53 u_2_2_6      *              0             0             1 
    54 u_1_3_1      *              1             0             1 
    55 u_2_3_1      *              1             0             1 
    56 u_1_3_2      *              0             0             1 
    57 u_2_3_2      *              1             0             1 
    58 u_1_3_5      *              0             0             1 
    59 u_2_3_5      *              1             0             1 
    60 u_1_3_6      *              0             0             1 
    61 u_2_3_6      *              1             0             1 
    62 u_1_4_1      *              1             0             1 
    63 u_2_4_1      *              1             0             1 
    64 u_1_4_2      *              0             0             1 
    65 u_2_4_2      *              1             0             1 
    66 u_1_4_5      *              0             0             1 
    67 u_2_4_5      *              1             0             1 
    68 u_1_4_6      *              0             0             1 
    69 u_2_4_6      *              1             0             1 
    70 u_1_5_1      *              1             0             1 
    71 u_2_5_1      *              0             0             1 
    72 u_1_5_2      *              0             0             1 
    73 u_2_5_2      *              1             0             1 
    74 u_1_5_3      *              1             0             1 
    75 u_2_5_3      *              0             0             1 
    76 u_1_5_4      *              1             0             1 
    77 u_2_5_4      *              0             0             1 
    78 u_1_6_2      *              1             0             1 
    79 u_2_6_2      *              1             0             1 
    80 u_1_6_3      *              1             0             1 
    81 u_2_6_3      *              0             0             1 
    82 u_1_6_4      *              1             0             1 
    83 u_2_6_4      *              0             0             1 
    84 u_1_6_7      *              1             0             1 
    85 u_2_6_7      *              0             0             1 
    86 u_1_7_1      *              1             0             1 
    87 u_2_7_1      *              1             0             1 
    88 u_1_7_6      *              0             0             1 
    89 u_2_7_6      *              1             0             1 

Integer feasibility conditions:

KKT.PE: max.abs.err = 0.00e+00 on row 0
        max.rel.err = 0.00e+00 on row 0
        High quality

KKT.PB: max.abs.err = 4.55e-13 on row 160
        max.rel.err = 1.23e-14 on row 83
        High quality

End of output
